c User generated cnf file
p cnf 12 44
-4 4 1 0 
-1 7 12 0 
12 -9 9 0 
-3 11 9 0 
2 2 -7 0 
10 8 -3 0 
2 -3 9 0 
12 1 -11 0 
8 9 -12 0 
10 4 -3 0 
3 -4 7 0 
12 -1 10 0 
10 3 -7 0 
4 -8 2 0 
8 -4 10 0 
-7 1 9 0 
-3 5 8 0 
8 4 -12 0 
3 -1 2 0 
8 6 -11 0 
-8 1 5 0 
4 -6 3 0 
-11 1 8 0 
-3 7 9 0 
10 -7 2 0 
5 9 -8 0 
-10 12 5 0 
-3 8 5 0 
2 8 -11 0 
-11 7 8 0 
11 -3 7 0 
12 9 -8 0 
-10 6 1 0 
7 6 -1 0 
-9 7 2 0 
-2 6 4 0 
5 -5 11 0 
-12 11 4 0 
6 10 -6 0 
-5 7 5 0 
8 12 -9 0 
5 -4 6 0 
10 -11 4 0 
3 3 -7 0 
